Traveling Salesman Problem/TSP_generados/Aleatorio1621103254_6.tsp
NAME: Aleatorio1621103254_6.tsp
COMMENT: Randomly generated scenario
TYPE: TSP
DIMENSION: 6
EDGE_WEIGHT_TYPE: ATT
NODE_COORD_SECTION
1 16.97 17.98
2 26.46 22.35
3 15.71 46.39
4 43.01 23.8
5 26.34 25.01
6 42.95 47.65
