Traveling Salesman Problem/TSP_generados/Aleatorio1621103254_6.opt.tour
NAME: Aleatorio1621103254_6.opt.tour
COMMENT: Optimal solution for Aleatorio1621103254_6 (109.38151266742001)
TYPE: TOUR
DIMENSION: 6
TOUR_SECTION
1 3 6 4 5 2
-1
EOF
